27503
1 1 0 0 1 0 1 0 0 0 0 0 0 1 1 0 1 1 1 0 0 0 0 1 1 1 0 0 1 0 
18 6 24 24 0 6 16 28 24 28 4 28 13 1 28 18 1 13 16 0 18 16 23 24 23 18 24 17 4 23 6 6 4 16 28 6 14 13 24 16 18 14 6 4 13 4 13 16 14 14 24 16 24 16 13 6 18 14 18 25 4 0 18 13 13 25 23 14 28 25 18 6 6 14 23 23 13 23 13 16 23 0 14 25 4 13 6 23 24 25 28 6 25 25 0 13 28 6 0 28 28 16 25 18 4 0 4 24 16 13 14 4 18 6 6 13 28 25 17 13 14 25 17 6 4 16 24 25 4 17 28 24 25 13 23 14 1 13 28 14 6 18 28 25 25 23 24 16 18 25 24 17 23 0 13 28 0 16 13 13 13 24 23 24 23 18 23 4 1 16 1 13 14 14 4 0 0 14 4 23 23 16 24 6 6 23 28 13 0 16 0 16 6 4 25 25 25 24 14 28 
